*SENSE:Minimize
NAME          MODEL
ROWS
 N  OBJ
 E  C0000000
 L  C0000001
 G  C0000002
 E  C0000003
 L  C0000004
 G  C0000005
 E  C0000006
 L  C0000007
 G  C0000008
 E  C0000009
 L  C0000010
 G  C0000011
 E  C0000012
 L  C0000013
 G  C0000014
 E  C0000015
 L  C0000016
 G  C0000017
 E  C0000018
 L  C0000019
 G  C0000020
 E  C0000021
 L  C0000022
 G  C0000023
 E  C0000024
 L  C0000025
 G  C0000026
 E  C0000027
 L  C0000028
 G  C0000029
 E  C0000030
 L  C0000031
 G  C0000032
 E  C0000033
 L  C0000034
 G  C0000035
 E  C0000036
 L  C0000037
 G  C0000038
 E  C0000039
 L  C0000040
 G  C0000041
 E  C0000042
 L  C0000043
 G  C0000044
 E  C0000045
 L  C0000046
 G  C0000047
 E  C0000048
 L  C0000049
 G  C0000050
 E  C0000051
 L  C0000052
 G  C0000053
 E  C0000054
 L  C0000055
 G  C0000056
 E  C0000057
 L  C0000058
 G  C0000059
 E  C0000060
 L  C0000061
 G  C0000062
 E  C0000063
 L  C0000064
 G  C0000065
 E  C0000066
 L  C0000067
 G  C0000068
 G  C0000069
 L  C0000070
 G  C0000071
 G  C0000072
 L  C0000073
 G  C0000074
 G  C0000075
 L  C0000076
 G  C0000077
 G  C0000078
 L  C0000079
 G  C0000080
 G  C0000081
 L  C0000082
 G  C0000083
 G  C0000084
 L  C0000085
 G  C0000086
 G  C0000087
 L  C0000088
 G  C0000089
 G  C0000090
 L  C0000091
 G  C0000092
 G  C0000093
 L  C0000094
 G  C0000095
 G  C0000096
 L  C0000097
 G  C0000098
 G  C0000099
 L  C0000100
 G  C0000101
 G  C0000102
 L  C0000103
 G  C0000104
 G  C0000105
 L  C0000106
 G  C0000107
 G  C0000108
 L  C0000109
 G  C0000110
 G  C0000111
 L  C0000112
 G  C0000113
 G  C0000114
 L  C0000115
 G  C0000116
 G  C0000117
 L  C0000118
 G  C0000119
 G  C0000120
 L  C0000121
 G  C0000122
 G  C0000123
 L  C0000124
 G  C0000125
 G  C0000126
 L  C0000127
 G  C0000128
 G  C0000129
 L  C0000130
 G  C0000131
 G  C0000132
 L  C0000133
 G  C0000134
 G  C0000135
 L  C0000136
 G  C0000137
 G  C0000138
 L  C0000139
 G  C0000140
 E  C0000141
 E  C0000142
 E  C0000143
 E  C0000144
 E  C0000145
 E  C0000146
 E  C0000147
 E  C0000148
 E  C0000149
 E  C0000150
 E  C0000151
 E  C0000152
 E  C0000153
 E  C0000154
 E  C0000155
 E  C0000156
 E  C0000157
 E  C0000158
 E  C0000159
 E  C0000160
 E  C0000161
 E  C0000162
 E  C0000163
 E  C0000164
 L  C0000165
 G  C0000166
 L  C0000167
 G  C0000168
 L  C0000169
 G  C0000170
 L  C0000171
 G  C0000172
 L  C0000173
 G  C0000174
 L  C0000175
 G  C0000176
 L  C0000177
 G  C0000178
 L  C0000179
 G  C0000180
 L  C0000181
 G  C0000182
 L  C0000183
 G  C0000184
 L  C0000185
 G  C0000186
 L  C0000187
 G  C0000188
 L  C0000189
 G  C0000190
 L  C0000191
 G  C0000192
 L  C0000193
 G  C0000194
 L  C0000195
 G  C0000196
 L  C0000197
 G  C0000198
 L  C0000199
 G  C0000200
 L  C0000201
 G  C0000202
 L  C0000203
 G  C0000204
 L  C0000205
 G  C0000206
 L  C0000207
 G  C0000208
 L  C0000209
 G  C0000210
 L  C0000211
 G  C0000212
 L  C0000213
 L  C0000214
 L  C0000215
 L  C0000216
 L  C0000217
 L  C0000218
 L  C0000219
 L  C0000220
 L  C0000221
 L  C0000222
 L  C0000223
 L  C0000224
 L  C0000225
 L  C0000226
 L  C0000227
 L  C0000228
 L  C0000229
 L  C0000230
 L  C0000231
 L  C0000232
 L  C0000233
 L  C0000234
 L  C0000235
 L  C0000236
COLUMNS
    X0000000  C0000069   1.000000000000e+00
    X0000000  C0000213   1.000000000000e+00
    X0000000  OBJ        9.000000000000e-02
    X0000001  C0000000  -1.000000000000e+00
    X0000001  C0000001   1.000000000000e+00
    X0000001  C0000072   1.000000000000e+00
    X0000001  C0000214   1.000000000000e+00
    X0000001  OBJ        9.000000000000e-02
    X0000002  C0000027  -1.000000000000e+00
    X0000002  C0000028   1.000000000000e+00
    X0000002  C0000099   1.000000000000e+00
    X0000002  C0000223   1.000000000000e+00
    X0000002  OBJ        2.100000000000e-01
    X0000003  C0000030  -1.000000000000e+00
    X0000003  C0000031   1.000000000000e+00
    X0000003  C0000102   1.000000000000e+00
    X0000003  C0000224   1.000000000000e+00
    X0000003  OBJ        2.100000000000e-01
    X0000004  C0000033  -1.000000000000e+00
    X0000004  C0000034   1.000000000000e+00
    X0000004  C0000105   1.000000000000e+00
    X0000004  C0000225   1.000000000000e+00
    X0000004  OBJ        2.100000000000e-01
    X0000005  C0000036  -1.000000000000e+00
    X0000005  C0000037   1.000000000000e+00
    X0000005  C0000108   1.000000000000e+00
    X0000005  C0000226   1.000000000000e+00
    X0000005  OBJ        2.100000000000e-01
    X0000006  C0000039  -1.000000000000e+00
    X0000006  C0000040   1.000000000000e+00
    X0000006  C0000111   1.000000000000e+00
    X0000006  C0000227   1.000000000000e+00
    X0000006  OBJ        2.100000000000e-01
    X0000007  C0000042  -1.000000000000e+00
    X0000007  C0000043   1.000000000000e+00
    X0000007  C0000114   1.000000000000e+00
    X0000007  C0000228   1.000000000000e+00
    X0000007  OBJ        2.100000000000e-01
    X0000008  C0000045  -1.000000000000e+00
    X0000008  C0000046   1.000000000000e+00
    X0000008  C0000117   1.000000000000e+00
    X0000008  C0000229   1.000000000000e+00
    X0000008  OBJ        2.100000000000e-01
    X0000009  C0000048  -1.000000000000e+00
    X0000009  C0000049   1.000000000000e+00
    X0000009  C0000120   1.000000000000e+00
    X0000009  C0000230   1.000000000000e+00
    X0000009  OBJ        2.100000000000e-01
    X0000010  C0000051  -1.000000000000e+00
    X0000010  C0000052   1.000000000000e+00
    X0000010  C0000123   1.000000000000e+00
    X0000010  C0000231   1.000000000000e+00
    X0000010  OBJ        2.100000000000e-01
    X0000011  C0000054  -1.000000000000e+00
    X0000011  C0000055   1.000000000000e+00
    X0000011  C0000126   1.000000000000e+00
    X0000011  C0000232   1.000000000000e+00
    X0000011  OBJ        2.100000000000e-01
    X0000012  C0000003  -1.000000000000e+00
    X0000012  C0000004   1.000000000000e+00
    X0000012  C0000075   1.000000000000e+00
    X0000012  C0000215   1.000000000000e+00
    X0000012  OBJ        9.000000000000e-02
    X0000013  C0000057  -1.000000000000e+00
    X0000013  C0000058   1.000000000000e+00
    X0000013  C0000129   1.000000000000e+00
    X0000013  C0000233   1.000000000000e+00
    X0000013  OBJ        2.100000000000e-01
    X0000014  C0000060  -1.000000000000e+00
    X0000014  C0000061   1.000000000000e+00
    X0000014  C0000132   1.000000000000e+00
    X0000014  C0000234   1.000000000000e+00
    X0000014  OBJ        2.100000000000e-01
    X0000015  C0000063  -1.000000000000e+00
    X0000015  C0000064   1.000000000000e+00
    X0000015  C0000135   1.000000000000e+00
    X0000015  C0000235   1.000000000000e+00
    X0000015  OBJ        2.100000000000e-01
    X0000016  C0000066  -1.000000000000e+00
    X0000016  C0000067   1.000000000000e+00
    X0000016  C0000138   1.000000000000e+00
    X0000016  C0000236   1.000000000000e+00
    X0000016  OBJ        2.100000000000e-01
    X0000017  C0000006  -1.000000000000e+00
    X0000017  C0000007   1.000000000000e+00
    X0000017  C0000078   1.000000000000e+00
    X0000017  C0000216   1.000000000000e+00
    X0000017  OBJ        9.000000000000e-02
    X0000018  C0000009  -1.000000000000e+00
    X0000018  C0000010   1.000000000000e+00
    X0000018  C0000081   1.000000000000e+00
    X0000018  C0000217   1.000000000000e+00
    X0000018  OBJ        9.000000000000e-02
    X0000019  C0000012  -1.000000000000e+00
    X0000019  C0000013   1.000000000000e+00
    X0000019  C0000084   1.000000000000e+00
    X0000019  C0000218   1.000000000000e+00
    X0000019  OBJ        9.000000000000e-02
    X0000020  C0000015  -1.000000000000e+00
    X0000020  C0000016   1.000000000000e+00
    X0000020  C0000087   1.000000000000e+00
    X0000020  C0000219   1.000000000000e+00
    X0000020  OBJ        9.000000000000e-02
    X0000021  C0000018  -1.000000000000e+00
    X0000021  C0000019   1.000000000000e+00
    X0000021  C0000090   1.000000000000e+00
    X0000021  C0000220   1.000000000000e+00
    X0000021  OBJ        9.000000000000e-02
    X0000022  C0000021  -1.000000000000e+00
    X0000022  C0000022   1.000000000000e+00
    X0000022  C0000093   1.000000000000e+00
    X0000022  C0000221   1.000000000000e+00
    X0000022  OBJ        2.100000000000e-01
    X0000023  C0000024  -1.000000000000e+00
    X0000023  C0000025   1.000000000000e+00
    X0000023  C0000096   1.000000000000e+00
    X0000023  C0000222   1.000000000000e+00
    X0000023  OBJ        2.100000000000e-01
    X0000024  C0000070   1.000000000000e+00
    X0000024  C0000141   1.000000000000e+00
    X0000024  C0000213  -1.000000000000e+00
    X0000025  C0000000  -1.000000000000e+00
    X0000025  C0000002   1.000000000000e+00
    X0000025  C0000073   1.000000000000e+00
    X0000025  C0000142   1.000000000000e+00
    X0000025  C0000214  -1.000000000000e+00
    X0000026  C0000027  -1.000000000000e+00
    X0000026  C0000029   1.000000000000e+00
    X0000026  C0000100   1.000000000000e+00
    X0000026  C0000151   1.000000000000e+00
    X0000026  C0000223  -1.000000000000e+00
    X0000027  C0000030  -1.000000000000e+00
    X0000027  C0000032   1.000000000000e+00
    X0000027  C0000103   1.000000000000e+00
    X0000027  C0000152   1.000000000000e+00
    X0000027  C0000224  -1.000000000000e+00
    X0000028  C0000033  -1.000000000000e+00
    X0000028  C0000035   1.000000000000e+00
    X0000028  C0000106   1.000000000000e+00
    X0000028  C0000153   1.000000000000e+00
    X0000028  C0000225  -1.000000000000e+00
    X0000029  C0000036  -1.000000000000e+00
    X0000029  C0000038   1.000000000000e+00
    X0000029  C0000109   1.000000000000e+00
    X0000029  C0000154   1.000000000000e+00
    X0000029  C0000226  -1.000000000000e+00
    X0000030  C0000039  -1.000000000000e+00
    X0000030  C0000041   1.000000000000e+00
    X0000030  C0000112   1.000000000000e+00
    X0000030  C0000155   1.000000000000e+00
    X0000030  C0000227  -1.000000000000e+00
    X0000031  C0000042  -1.000000000000e+00
    X0000031  C0000044   1.000000000000e+00
    X0000031  C0000115   1.000000000000e+00
    X0000031  C0000156   1.000000000000e+00
    X0000031  C0000228  -1.000000000000e+00
    X0000032  C0000045  -1.000000000000e+00
    X0000032  C0000047   1.000000000000e+00
    X0000032  C0000118   1.000000000000e+00
    X0000032  C0000157   1.000000000000e+00
    X0000032  C0000229  -1.000000000000e+00
    X0000033  C0000048  -1.000000000000e+00
    X0000033  C0000050   1.000000000000e+00
    X0000033  C0000121   1.000000000000e+00
    X0000033  C0000158   1.000000000000e+00
    X0000033  C0000230  -1.000000000000e+00
    X0000034  C0000051  -1.000000000000e+00
    X0000034  C0000053   1.000000000000e+00
    X0000034  C0000124   1.000000000000e+00
    X0000034  C0000159   1.000000000000e+00
    X0000034  C0000231  -1.000000000000e+00
    X0000035  C0000054  -1.000000000000e+00
    X0000035  C0000056   1.000000000000e+00
    X0000035  C0000127   1.000000000000e+00
    X0000035  C0000160   1.000000000000e+00
    X0000035  C0000232  -1.000000000000e+00
    X0000036  C0000003  -1.000000000000e+00
    X0000036  C0000005   1.000000000000e+00
    X0000036  C0000076   1.000000000000e+00
    X0000036  C0000143   1.000000000000e+00
    X0000036  C0000215  -1.000000000000e+00
    X0000037  C0000057  -1.000000000000e+00
    X0000037  C0000059   1.000000000000e+00
    X0000037  C0000130   1.000000000000e+00
    X0000037  C0000161   1.000000000000e+00
    X0000037  C0000233  -1.000000000000e+00
    X0000038  C0000060  -1.000000000000e+00
    X0000038  C0000062   1.000000000000e+00
    X0000038  C0000133   1.000000000000e+00
    X0000038  C0000162   1.000000000000e+00
    X0000038  C0000234  -1.000000000000e+00
    X0000039  C0000063  -1.000000000000e+00
    X0000039  C0000065   1.000000000000e+00
    X0000039  C0000136   1.000000000000e+00
    X0000039  C0000163   1.000000000000e+00
    X0000039  C0000235  -1.000000000000e+00
    X0000040  C0000066  -1.000000000000e+00
    X0000040  C0000068   1.000000000000e+00
    X0000040  C0000139   1.000000000000e+00
    X0000040  C0000164   1.000000000000e+00
    X0000040  C0000236  -1.000000000000e+00
    X0000041  C0000006  -1.000000000000e+00
    X0000041  C0000008   1.000000000000e+00
    X0000041  C0000079   1.000000000000e+00
    X0000041  C0000144   1.000000000000e+00
    X0000041  C0000216  -1.000000000000e+00
    X0000042  C0000009  -1.000000000000e+00
    X0000042  C0000011   1.000000000000e+00
    X0000042  C0000082   1.000000000000e+00
    X0000042  C0000145   1.000000000000e+00
    X0000042  C0000217  -1.000000000000e+00
    X0000043  C0000012  -1.000000000000e+00
    X0000043  C0000014   1.000000000000e+00
    X0000043  C0000085   1.000000000000e+00
    X0000043  C0000146   1.000000000000e+00
    X0000043  C0000218  -1.000000000000e+00
    X0000044  C0000015  -1.000000000000e+00
    X0000044  C0000017   1.000000000000e+00
    X0000044  C0000088   1.000000000000e+00
    X0000044  C0000147   1.000000000000e+00
    X0000044  C0000219  -1.000000000000e+00
    X0000045  C0000018  -1.000000000000e+00
    X0000045  C0000020   1.000000000000e+00
    X0000045  C0000091   1.000000000000e+00
    X0000045  C0000148   1.000000000000e+00
    X0000045  C0000220  -1.000000000000e+00
    X0000046  C0000021  -1.000000000000e+00
    X0000046  C0000023   1.000000000000e+00
    X0000046  C0000094   1.000000000000e+00
    X0000046  C0000149   1.000000000000e+00
    X0000046  C0000221  -1.000000000000e+00
    X0000047  C0000024  -1.000000000000e+00
    X0000047  C0000026   1.000000000000e+00
    X0000047  C0000097   1.000000000000e+00
    X0000047  C0000150   1.000000000000e+00
    X0000047  C0000222  -1.000000000000e+00
    X0000048  C0000071   1.000000000000e+00
    X0000048  C0000141   1.000000000000e+00
    X0000048  OBJ        9.000000000000e-02
    X0000049  C0000074   1.000000000000e+00
    X0000049  C0000142   1.000000000000e+00
    X0000049  OBJ        9.000000000000e-02
    X0000050  C0000101   1.000000000000e+00
    X0000050  C0000151   1.000000000000e+00
    X0000050  OBJ        2.100000000000e-01
    X0000051  C0000104   1.000000000000e+00
    X0000051  C0000152   1.000000000000e+00
    X0000051  OBJ        2.100000000000e-01
    X0000052  C0000107   1.000000000000e+00
    X0000052  C0000153   1.000000000000e+00
    X0000052  OBJ        2.100000000000e-01
    X0000053  C0000110   1.000000000000e+00
    X0000053  C0000154   1.000000000000e+00
    X0000053  OBJ        2.100000000000e-01
    X0000054  C0000113   1.000000000000e+00
    X0000054  C0000155   1.000000000000e+00
    X0000054  OBJ        2.100000000000e-01
    X0000055  C0000116   1.000000000000e+00
    X0000055  C0000156   1.000000000000e+00
    X0000055  OBJ        2.100000000000e-01
    X0000056  C0000119   1.000000000000e+00
    X0000056  C0000157   1.000000000000e+00
    X0000056  OBJ        2.100000000000e-01
    X0000057  C0000122   1.000000000000e+00
    X0000057  C0000158   1.000000000000e+00
    X0000057  OBJ        2.100000000000e-01
    X0000058  C0000125   1.000000000000e+00
    X0000058  C0000159   1.000000000000e+00
    X0000058  OBJ        2.100000000000e-01
    X0000059  C0000128   1.000000000000e+00
    X0000059  C0000160   1.000000000000e+00
    X0000059  OBJ        2.100000000000e-01
    X0000060  C0000077   1.000000000000e+00
    X0000060  C0000143   1.000000000000e+00
    X0000060  OBJ        9.000000000000e-02
    X0000061  C0000131   1.000000000000e+00
    X0000061  C0000161   1.000000000000e+00
    X0000061  OBJ        2.100000000000e-01
    X0000062  C0000134   1.000000000000e+00
    X0000062  C0000162   1.000000000000e+00
    X0000062  OBJ        2.100000000000e-01
    X0000063  C0000137   1.000000000000e+00
    X0000063  C0000163   1.000000000000e+00
    X0000063  OBJ        2.100000000000e-01
    X0000064  C0000140   1.000000000000e+00
    X0000064  C0000164   1.000000000000e+00
    X0000064  OBJ        2.100000000000e-01
    X0000065  C0000080   1.000000000000e+00
    X0000065  C0000144   1.000000000000e+00
    X0000065  OBJ        9.000000000000e-02
    X0000066  C0000083   1.000000000000e+00
    X0000066  C0000145   1.000000000000e+00
    X0000066  OBJ        9.000000000000e-02
    X0000067  C0000086   1.000000000000e+00
    X0000067  C0000146   1.000000000000e+00
    X0000067  OBJ        9.000000000000e-02
    X0000068  C0000089   1.000000000000e+00
    X0000068  C0000147   1.000000000000e+00
    X0000068  OBJ        9.000000000000e-02
    X0000069  C0000092   1.000000000000e+00
    X0000069  C0000148   1.000000000000e+00
    X0000069  OBJ        9.000000000000e-02
    X0000070  C0000095   1.000000000000e+00
    X0000070  C0000149   1.000000000000e+00
    X0000070  OBJ        2.100000000000e-01
    X0000071  C0000098   1.000000000000e+00
    X0000071  C0000150   1.000000000000e+00
    X0000071  OBJ        2.100000000000e-01
    X0000072  C0000165   1.000000000000e+00
    X0000072  C0000166   1.000000000000e+00
    X0000073  C0000000   1.000000000000e+00
    X0000073  C0000003  -1.000000000000e+00
    X0000073  C0000004   1.000000000000e+00
    X0000073  C0000005   1.000000000000e+00
    X0000073  C0000167   1.000000000000e+00
    X0000073  C0000168   1.000000000000e+00
    X0000074  C0000027   1.000000000000e+00
    X0000074  C0000030  -1.000000000000e+00
    X0000074  C0000031   1.000000000000e+00
    X0000074  C0000032   1.000000000000e+00
    X0000074  C0000185   1.000000000000e+00
    X0000074  C0000186   1.000000000000e+00
    X0000075  C0000030   1.000000000000e+00
    X0000075  C0000033  -1.000000000000e+00
    X0000075  C0000034   1.000000000000e+00
    X0000075  C0000035   1.000000000000e+00
    X0000075  C0000187   1.000000000000e+00
    X0000075  C0000188   1.000000000000e+00
    X0000076  C0000033   1.000000000000e+00
    X0000076  C0000036  -1.000000000000e+00
    X0000076  C0000037   1.000000000000e+00
    X0000076  C0000038   1.000000000000e+00
    X0000076  C0000189   1.000000000000e+00
    X0000076  C0000190   1.000000000000e+00
    X0000077  C0000036   1.000000000000e+00
    X0000077  C0000039  -1.000000000000e+00
    X0000077  C0000040   1.000000000000e+00
    X0000077  C0000041   1.000000000000e+00
    X0000077  C0000191   1.000000000000e+00
    X0000077  C0000192   1.000000000000e+00
    X0000078  C0000039   1.000000000000e+00
    X0000078  C0000042  -1.000000000000e+00
    X0000078  C0000043   1.000000000000e+00
    X0000078  C0000044   1.000000000000e+00
    X0000078  C0000193   1.000000000000e+00
    X0000078  C0000194   1.000000000000e+00
    X0000079  C0000042   1.000000000000e+00
    X0000079  C0000045  -1.000000000000e+00
    X0000079  C0000046   1.000000000000e+00
    X0000079  C0000047   1.000000000000e+00
    X0000079  C0000195   1.000000000000e+00
    X0000079  C0000196   1.000000000000e+00
    X0000080  C0000045   1.000000000000e+00
    X0000080  C0000048  -1.000000000000e+00
    X0000080  C0000049   1.000000000000e+00
    X0000080  C0000050   1.000000000000e+00
    X0000080  C0000197   1.000000000000e+00
    X0000080  C0000198   1.000000000000e+00
    X0000081  C0000048   1.000000000000e+00
    X0000081  C0000051  -1.000000000000e+00
    X0000081  C0000052   1.000000000000e+00
    X0000081  C0000053   1.000000000000e+00
    X0000081  C0000199   1.000000000000e+00
    X0000081  C0000200   1.000000000000e+00
    X0000082  C0000051   1.000000000000e+00
    X0000082  C0000054  -1.000000000000e+00
    X0000082  C0000055   1.000000000000e+00
    X0000082  C0000056   1.000000000000e+00
    X0000082  C0000201   1.000000000000e+00
    X0000082  C0000202   1.000000000000e+00
    X0000083  C0000054   1.000000000000e+00
    X0000083  C0000057  -1.000000000000e+00
    X0000083  C0000058   1.000000000000e+00
    X0000083  C0000059   1.000000000000e+00
    X0000083  C0000203   1.000000000000e+00
    X0000083  C0000204   1.000000000000e+00
    X0000084  C0000003   1.000000000000e+00
    X0000084  C0000006  -1.000000000000e+00
    X0000084  C0000007   1.000000000000e+00
    X0000084  C0000008   1.000000000000e+00
    X0000084  C0000169   1.000000000000e+00
    X0000084  C0000170   1.000000000000e+00
    X0000085  C0000057   1.000000000000e+00
    X0000085  C0000060  -1.000000000000e+00
    X0000085  C0000061   1.000000000000e+00
    X0000085  C0000062   1.000000000000e+00
    X0000085  C0000205   1.000000000000e+00
    X0000085  C0000206   1.000000000000e+00
    X0000086  C0000060   1.000000000000e+00
    X0000086  C0000063  -1.000000000000e+00
    X0000086  C0000064   1.000000000000e+00
    X0000086  C0000065   1.000000000000e+00
    X0000086  C0000207   1.000000000000e+00
    X0000086  C0000208   1.000000000000e+00
    X0000087  C0000063   1.000000000000e+00
    X0000087  C0000066  -1.000000000000e+00
    X0000087  C0000067   1.000000000000e+00
    X0000087  C0000068   1.000000000000e+00
    X0000087  C0000209   1.000000000000e+00
    X0000087  C0000210   1.000000000000e+00
    X0000088  C0000066   1.000000000000e+00
    X0000088  C0000211   1.000000000000e+00
    X0000088  C0000212   1.000000000000e+00
    X0000089  C0000006   1.000000000000e+00
    X0000089  C0000009  -1.000000000000e+00
    X0000089  C0000010   1.000000000000e+00
    X0000089  C0000011   1.000000000000e+00
    X0000089  C0000171   1.000000000000e+00
    X0000089  C0000172   1.000000000000e+00
    X0000090  C0000009   1.000000000000e+00
    X0000090  C0000012  -1.000000000000e+00
    X0000090  C0000013   1.000000000000e+00
    X0000090  C0000014   1.000000000000e+00
    X0000090  C0000173   1.000000000000e+00
    X0000090  C0000174   1.000000000000e+00
    X0000091  C0000012   1.000000000000e+00
    X0000091  C0000015  -1.000000000000e+00
    X0000091  C0000016   1.000000000000e+00
    X0000091  C0000017   1.000000000000e+00
    X0000091  C0000175   1.000000000000e+00
    X0000091  C0000176   1.000000000000e+00
    X0000092  C0000015   1.000000000000e+00
    X0000092  C0000018  -1.000000000000e+00
    X0000092  C0000019   1.000000000000e+00
    X0000092  C0000020   1.000000000000e+00
    X0000092  C0000177   1.000000000000e+00
    X0000092  C0000178   1.000000000000e+00
    X0000093  C0000018   1.000000000000e+00
    X0000093  C0000021  -1.000000000000e+00
    X0000093  C0000022   1.000000000000e+00
    X0000093  C0000023   1.000000000000e+00
    X0000093  C0000179   1.000000000000e+00
    X0000093  C0000180   1.000000000000e+00
    X0000094  C0000021   1.000000000000e+00
    X0000094  C0000024  -1.000000000000e+00
    X0000094  C0000025   1.000000000000e+00
    X0000094  C0000026   1.000000000000e+00
    X0000094  C0000181   1.000000000000e+00
    X0000094  C0000182   1.000000000000e+00
    X0000095  C0000024   1.000000000000e+00
    X0000095  C0000027  -1.000000000000e+00
    X0000095  C0000028   1.000000000000e+00
    X0000095  C0000029   1.000000000000e+00
    X0000095  C0000183   1.000000000000e+00
    X0000095  C0000184   1.000000000000e+00
RHS
    RHS       C0000000   3.860000000000e+00
    RHS       C0000001   1.544000000000e+01
    RHS       C0000002   1.730000000000e+00
    RHS       C0000003   0.000000000000e+00
    RHS       C0000004   1.930000000000e+01
    RHS       C0000005   1.930000000000e+00
    RHS       C0000006   0.000000000000e+00
    RHS       C0000007   1.930000000000e+01
    RHS       C0000008   1.930000000000e+00
    RHS       C0000009   0.000000000000e+00
    RHS       C0000010   1.930000000000e+01
    RHS       C0000011   1.930000000000e+00
    RHS       C0000012   0.000000000000e+00
    RHS       C0000013   1.930000000000e+01
    RHS       C0000014   1.930000000000e+00
    RHS       C0000015   0.000000000000e+00
    RHS       C0000016   1.930000000000e+01
    RHS       C0000017   1.930000000000e+00
    RHS       C0000018   0.000000000000e+00
    RHS       C0000019   1.930000000000e+01
    RHS       C0000020   1.930000000000e+00
    RHS       C0000021   0.000000000000e+00
    RHS       C0000022   1.930000000000e+01
    RHS       C0000023   1.930000000000e+00
    RHS       C0000024   0.000000000000e+00
    RHS       C0000025   1.930000000000e+01
    RHS       C0000026   1.930000000000e+00
    RHS       C0000027   0.000000000000e+00
    RHS       C0000028   1.930000000000e+01
    RHS       C0000029   1.930000000000e+00
    RHS       C0000030   0.000000000000e+00
    RHS       C0000031   1.930000000000e+01
    RHS       C0000032   1.930000000000e+00
    RHS       C0000033   0.000000000000e+00
    RHS       C0000034   1.930000000000e+01
    RHS       C0000035   1.930000000000e+00
    RHS       C0000036   0.000000000000e+00
    RHS       C0000037   1.930000000000e+01
    RHS       C0000038   1.930000000000e+00
    RHS       C0000039   0.000000000000e+00
    RHS       C0000040   1.930000000000e+01
    RHS       C0000041   1.930000000000e+00
    RHS       C0000042   0.000000000000e+00
    RHS       C0000043   1.930000000000e+01
    RHS       C0000044   1.930000000000e+00
    RHS       C0000045   0.000000000000e+00
    RHS       C0000046   1.930000000000e+01
    RHS       C0000047   1.930000000000e+00
    RHS       C0000048   0.000000000000e+00
    RHS       C0000049   1.930000000000e+01
    RHS       C0000050   1.930000000000e+00
    RHS       C0000051   0.000000000000e+00
    RHS       C0000052   1.930000000000e+01
    RHS       C0000053   1.930000000000e+00
    RHS       C0000054   0.000000000000e+00
    RHS       C0000055   1.930000000000e+01
    RHS       C0000056   1.930000000000e+00
    RHS       C0000057   0.000000000000e+00
    RHS       C0000058   1.930000000000e+01
    RHS       C0000059   1.930000000000e+00
    RHS       C0000060   0.000000000000e+00
    RHS       C0000061   1.930000000000e+01
    RHS       C0000062   1.930000000000e+00
    RHS       C0000063   0.000000000000e+00
    RHS       C0000064   1.930000000000e+01
    RHS       C0000065   1.930000000000e+00
    RHS       C0000066   0.000000000000e+00
    RHS       C0000067   1.930000000000e+01
    RHS       C0000068   1.930000000000e+00
    RHS       C0000069   0.000000000000e+00
    RHS       C0000070   0.000000000000e+00
    RHS       C0000071   0.000000000000e+00
    RHS       C0000072   0.000000000000e+00
    RHS       C0000073   0.000000000000e+00
    RHS       C0000074   0.000000000000e+00
    RHS       C0000075   0.000000000000e+00
    RHS       C0000076   0.000000000000e+00
    RHS       C0000077   0.000000000000e+00
    RHS       C0000078   0.000000000000e+00
    RHS       C0000079   0.000000000000e+00
    RHS       C0000080   0.000000000000e+00
    RHS       C0000081   0.000000000000e+00
    RHS       C0000082   0.000000000000e+00
    RHS       C0000083   0.000000000000e+00
    RHS       C0000084   0.000000000000e+00
    RHS       C0000085   0.000000000000e+00
    RHS       C0000086   0.000000000000e+00
    RHS       C0000087   0.000000000000e+00
    RHS       C0000088   0.000000000000e+00
    RHS       C0000089   0.000000000000e+00
    RHS       C0000090   0.000000000000e+00
    RHS       C0000091   0.000000000000e+00
    RHS       C0000092   0.000000000000e+00
    RHS       C0000093   0.000000000000e+00
    RHS       C0000094   0.000000000000e+00
    RHS       C0000095   0.000000000000e+00
    RHS       C0000096   0.000000000000e+00
    RHS       C0000097   0.000000000000e+00
    RHS       C0000098   0.000000000000e+00
    RHS       C0000099   0.000000000000e+00
    RHS       C0000100   0.000000000000e+00
    RHS       C0000101   0.000000000000e+00
    RHS       C0000102   0.000000000000e+00
    RHS       C0000103   0.000000000000e+00
    RHS       C0000104   0.000000000000e+00
    RHS       C0000105   0.000000000000e+00
    RHS       C0000106   0.000000000000e+00
    RHS       C0000107   0.000000000000e+00
    RHS       C0000108   0.000000000000e+00
    RHS       C0000109   0.000000000000e+00
    RHS       C0000110   0.000000000000e+00
    RHS       C0000111   0.000000000000e+00
    RHS       C0000112   0.000000000000e+00
    RHS       C0000113   0.000000000000e+00
    RHS       C0000114   0.000000000000e+00
    RHS       C0000115   0.000000000000e+00
    RHS       C0000116   0.000000000000e+00
    RHS       C0000117   0.000000000000e+00
    RHS       C0000118   0.000000000000e+00
    RHS       C0000119   0.000000000000e+00
    RHS       C0000120   0.000000000000e+00
    RHS       C0000121   0.000000000000e+00
    RHS       C0000122   0.000000000000e+00
    RHS       C0000123   0.000000000000e+00
    RHS       C0000124   0.000000000000e+00
    RHS       C0000125   0.000000000000e+00
    RHS       C0000126   0.000000000000e+00
    RHS       C0000127   0.000000000000e+00
    RHS       C0000128   0.000000000000e+00
    RHS       C0000129   0.000000000000e+00
    RHS       C0000130   0.000000000000e+00
    RHS       C0000131   0.000000000000e+00
    RHS       C0000132   0.000000000000e+00
    RHS       C0000133   0.000000000000e+00
    RHS       C0000134   0.000000000000e+00
    RHS       C0000135   0.000000000000e+00
    RHS       C0000136   0.000000000000e+00
    RHS       C0000137   0.000000000000e+00
    RHS       C0000138   0.000000000000e+00
    RHS       C0000139   0.000000000000e+00
    RHS       C0000140   0.000000000000e+00
    RHS       C0000141  -5.457500000000e-01
    RHS       C0000142   0.000000000000e+00
    RHS       C0000143   0.000000000000e+00
    RHS       C0000144   0.000000000000e+00
    RHS       C0000145   0.000000000000e+00
    RHS       C0000146   0.000000000000e+00
    RHS       C0000147  -5.452500000000e-01
    RHS       C0000148  -5.337500000000e-01
    RHS       C0000149  -5.140000000000e-01
    RHS       C0000150   0.000000000000e+00
    RHS       C0000151   0.000000000000e+00
    RHS       C0000152   0.000000000000e+00
    RHS       C0000153   0.000000000000e+00
    RHS       C0000154   0.000000000000e+00
    RHS       C0000155   0.000000000000e+00
    RHS       C0000156   0.000000000000e+00
    RHS       C0000157  -4.907500000000e-01
    RHS       C0000158  -5.035000000000e-01
    RHS       C0000159  -5.242500000000e-01
    RHS       C0000160  -5.507500000000e-01
    RHS       C0000161  -5.700000000000e-01
    RHS       C0000162  -5.800000000000e-01
    RHS       C0000163  -5.785000000000e-01
    RHS       C0000164  -5.747500000000e-01
    RHS       C0000165   1.930000000000e+01
    RHS       C0000166   3.860000000000e+00
    RHS       C0000167   1.930000000000e+01
    RHS       C0000168   3.860000000000e+00
    RHS       C0000169   1.930000000000e+01
    RHS       C0000170   3.860000000000e+00
    RHS       C0000171   1.930000000000e+01
    RHS       C0000172   3.860000000000e+00
    RHS       C0000173   1.930000000000e+01
    RHS       C0000174   3.860000000000e+00
    RHS       C0000175   1.930000000000e+01
    RHS       C0000176   3.860000000000e+00
    RHS       C0000177   1.930000000000e+01
    RHS       C0000178   3.860000000000e+00
    RHS       C0000179   1.930000000000e+01
    RHS       C0000180   3.860000000000e+00
    RHS       C0000181   1.930000000000e+01
    RHS       C0000182   3.860000000000e+00
    RHS       C0000183   1.930000000000e+01
    RHS       C0000184   3.860000000000e+00
    RHS       C0000185   1.930000000000e+01
    RHS       C0000186   3.860000000000e+00
    RHS       C0000187   1.930000000000e+01
    RHS       C0000188   3.860000000000e+00
    RHS       C0000189   1.930000000000e+01
    RHS       C0000190   3.860000000000e+00
    RHS       C0000191   1.930000000000e+01
    RHS       C0000192   3.860000000000e+00
    RHS       C0000193   1.930000000000e+01
    RHS       C0000194   3.860000000000e+00
    RHS       C0000195   1.930000000000e+01
    RHS       C0000196   3.860000000000e+00
    RHS       C0000197   1.930000000000e+01
    RHS       C0000198   3.860000000000e+00
    RHS       C0000199   1.930000000000e+01
    RHS       C0000200   3.860000000000e+00
    RHS       C0000201   1.930000000000e+01
    RHS       C0000202   3.860000000000e+00
    RHS       C0000203   1.930000000000e+01
    RHS       C0000204   3.860000000000e+00
    RHS       C0000205   1.930000000000e+01
    RHS       C0000206   3.860000000000e+00
    RHS       C0000207   1.930000000000e+01
    RHS       C0000208   3.860000000000e+00
    RHS       C0000209   1.930000000000e+01
    RHS       C0000210   3.860000000000e+00
    RHS       C0000211   1.930000000000e+01
    RHS       C0000212   3.860000000000e+00
    RHS       C0000213   2.760000000000e+00
    RHS       C0000214   2.760000000000e+00
    RHS       C0000215   2.760000000000e+00
    RHS       C0000216   2.760000000000e+00
    RHS       C0000217   2.760000000000e+00
    RHS       C0000218   2.760000000000e+00
    RHS       C0000219   2.760000000000e+00
    RHS       C0000220   2.760000000000e+00
    RHS       C0000221   2.760000000000e+00
    RHS       C0000222   2.760000000000e+00
    RHS       C0000223   2.760000000000e+00
    RHS       C0000224   2.760000000000e+00
    RHS       C0000225   2.760000000000e+00
    RHS       C0000226   2.760000000000e+00
    RHS       C0000227   2.760000000000e+00
    RHS       C0000228   2.760000000000e+00
    RHS       C0000229   2.760000000000e+00
    RHS       C0000230   2.760000000000e+00
    RHS       C0000231   2.760000000000e+00
    RHS       C0000232   2.760000000000e+00
    RHS       C0000233   2.760000000000e+00
    RHS       C0000234   2.760000000000e+00
    RHS       C0000235   2.760000000000e+00
    RHS       C0000236   2.760000000000e+00
BOUNDS
 UP BND       X0000000   2.760000000000e+00
 UP BND       X0000001   2.760000000000e+00
 UP BND       X0000002   2.760000000000e+00
 UP BND       X0000003   2.760000000000e+00
 UP BND       X0000004   2.760000000000e+00
 UP BND       X0000005   2.760000000000e+00
 UP BND       X0000006   2.760000000000e+00
 UP BND       X0000007   2.760000000000e+00
 UP BND       X0000008   2.760000000000e+00
 UP BND       X0000009   2.760000000000e+00
 UP BND       X0000010   2.760000000000e+00
 UP BND       X0000011   2.760000000000e+00
 UP BND       X0000012   2.760000000000e+00
 UP BND       X0000013   2.760000000000e+00
 UP BND       X0000014   2.760000000000e+00
 UP BND       X0000015   2.760000000000e+00
 UP BND       X0000016   2.760000000000e+00
 UP BND       X0000017   2.760000000000e+00
 UP BND       X0000018   2.760000000000e+00
 UP BND       X0000019   2.760000000000e+00
 UP BND       X0000020   2.760000000000e+00
 UP BND       X0000021   2.760000000000e+00
 UP BND       X0000022   2.760000000000e+00
 UP BND       X0000023   2.760000000000e+00
 LO BND       X0000024  -2.760000000000e+00
 UP BND       X0000024   0.000000000000e+00
 LO BND       X0000025  -2.760000000000e+00
 UP BND       X0000025   0.000000000000e+00
 LO BND       X0000026  -2.760000000000e+00
 UP BND       X0000026   0.000000000000e+00
 LO BND       X0000027  -2.760000000000e+00
 UP BND       X0000027   0.000000000000e+00
 LO BND       X0000028  -2.760000000000e+00
 UP BND       X0000028   0.000000000000e+00
 LO BND       X0000029  -2.760000000000e+00
 UP BND       X0000029   0.000000000000e+00
 LO BND       X0000030  -2.760000000000e+00
 UP BND       X0000030   0.000000000000e+00
 LO BND       X0000031  -2.760000000000e+00
 UP BND       X0000031   0.000000000000e+00
 LO BND       X0000032  -2.760000000000e+00
 UP BND       X0000032   0.000000000000e+00
 LO BND       X0000033  -2.760000000000e+00
 UP BND       X0000033   0.000000000000e+00
 LO BND       X0000034  -2.760000000000e+00
 UP BND       X0000034   0.000000000000e+00
 LO BND       X0000035  -2.760000000000e+00
 UP BND       X0000035   0.000000000000e+00
 LO BND       X0000036  -2.760000000000e+00
 UP BND       X0000036   0.000000000000e+00
 LO BND       X0000037  -2.760000000000e+00
 UP BND       X0000037   0.000000000000e+00
 LO BND       X0000038  -2.760000000000e+00
 UP BND       X0000038   0.000000000000e+00
 LO BND       X0000039  -2.760000000000e+00
 UP BND       X0000039   0.000000000000e+00
 LO BND       X0000040  -2.760000000000e+00
 UP BND       X0000040   0.000000000000e+00
 LO BND       X0000041  -2.760000000000e+00
 UP BND       X0000041   0.000000000000e+00
 LO BND       X0000042  -2.760000000000e+00
 UP BND       X0000042   0.000000000000e+00
 LO BND       X0000043  -2.760000000000e+00
 UP BND       X0000043   0.000000000000e+00
 LO BND       X0000044  -2.760000000000e+00
 UP BND       X0000044   0.000000000000e+00
 LO BND       X0000045  -2.760000000000e+00
 UP BND       X0000045   0.000000000000e+00
 LO BND       X0000046  -2.760000000000e+00
 UP BND       X0000046   0.000000000000e+00
 LO BND       X0000047  -2.760000000000e+00
 UP BND       X0000047   0.000000000000e+00
 UP BND       X0000048   2.760000000000e+00
 UP BND       X0000049   2.760000000000e+00
 UP BND       X0000050   2.760000000000e+00
 UP BND       X0000051   2.760000000000e+00
 UP BND       X0000052   2.760000000000e+00
 UP BND       X0000053   2.760000000000e+00
 UP BND       X0000054   2.760000000000e+00
 UP BND       X0000055   2.760000000000e+00
 UP BND       X0000056   2.760000000000e+00
 UP BND       X0000057   2.760000000000e+00
 UP BND       X0000058   2.760000000000e+00
 UP BND       X0000059   2.760000000000e+00
 UP BND       X0000060   2.760000000000e+00
 UP BND       X0000061   2.760000000000e+00
 UP BND       X0000062   2.760000000000e+00
 UP BND       X0000063   2.760000000000e+00
 UP BND       X0000064   2.760000000000e+00
 UP BND       X0000065   2.760000000000e+00
 UP BND       X0000066   2.760000000000e+00
 UP BND       X0000067   2.760000000000e+00
 UP BND       X0000068   2.760000000000e+00
 UP BND       X0000069   2.760000000000e+00
 UP BND       X0000070   2.760000000000e+00
 UP BND       X0000071   2.760000000000e+00
 LO BND       X0000072   3.860000000000e+00
 UP BND       X0000072   1.930000000000e+01
 LO BND       X0000073   3.860000000000e+00
 UP BND       X0000073   1.930000000000e+01
 LO BND       X0000074   3.860000000000e+00
 UP BND       X0000074   1.930000000000e+01
 LO BND       X0000075   3.860000000000e+00
 UP BND       X0000075   1.930000000000e+01
 LO BND       X0000076   3.860000000000e+00
 UP BND       X0000076   1.930000000000e+01
 LO BND       X0000077   3.860000000000e+00
 UP BND       X0000077   1.930000000000e+01
 LO BND       X0000078   3.860000000000e+00
 UP BND       X0000078   1.930000000000e+01
 LO BND       X0000079   3.860000000000e+00
 UP BND       X0000079   1.930000000000e+01
 LO BND       X0000080   3.860000000000e+00
 UP BND       X0000080   1.930000000000e+01
 LO BND       X0000081   3.860000000000e+00
 UP BND       X0000081   1.930000000000e+01
 LO BND       X0000082   3.860000000000e+00
 UP BND       X0000082   1.930000000000e+01
 LO BND       X0000083   3.860000000000e+00
 UP BND       X0000083   1.930000000000e+01
 LO BND       X0000084   3.860000000000e+00
 UP BND       X0000084   1.930000000000e+01
 LO BND       X0000085   3.860000000000e+00
 UP BND       X0000085   1.930000000000e+01
 LO BND       X0000086   3.860000000000e+00
 UP BND       X0000086   1.930000000000e+01
 LO BND       X0000087   3.860000000000e+00
 UP BND       X0000087   1.930000000000e+01
 LO BND       X0000088   3.860000000000e+00
 UP BND       X0000088   1.930000000000e+01
 LO BND       X0000089   3.860000000000e+00
 UP BND       X0000089   1.930000000000e+01
 LO BND       X0000090   3.860000000000e+00
 UP BND       X0000090   1.930000000000e+01
 LO BND       X0000091   3.860000000000e+00
 UP BND       X0000091   1.930000000000e+01
 LO BND       X0000092   3.860000000000e+00
 UP BND       X0000092   1.930000000000e+01
 LO BND       X0000093   3.860000000000e+00
 UP BND       X0000093   1.930000000000e+01
 LO BND       X0000094   3.860000000000e+00
 UP BND       X0000094   1.930000000000e+01
 LO BND       X0000095   3.860000000000e+00
 UP BND       X0000095   1.930000000000e+01
ENDATA
